36 36
23
3 3 18 0
3 4 12 16
3 5 12 0
3 6 29 0
3 7 21 29
3 8 29 28
3 9 18 27
3 10 29 18
3 11 12 5
3 12 29 6
3 14 21 0
3 15 26 14
3 16 12 20
3 24 18 3
3 36 15 0
4 3 32 22
4 11 32 25
4 22 32 0
5 3 24 29
5 4 24 32
5 14 24 0
5 15 21 14
12 36 0 0
